 vasp.5.4.4.18Apr17-6-g9f103f2a35 (build May 24 2018 15:12:59) complex

 executed on             LinuxIFC date 2018.11.27  15:31:29

 INCAR:
 POTCAR:    PAW_PBE Mo 08Apr2002
 POTCAR:    PAW_PBE S 06Sep2000
 POTCAR:    PAW_PBE Mo 08Apr2002
   VRHFIN =Mo: 4p5s4d

   TITEL  = PAW_PBE Mo 08Apr2002
   POMASS =   95.940; ZVAL   =    6.000    mass and valenz
   ENMAX  =  224.584; ENMIN  =  168.438 eV

 POTCAR:    PAW_PBE S 06Sep2000
   VRHFIN =S : s2p4

   TITEL  = PAW_PBE S 06Sep2000
   POMASS =   32.066; ZVAL   =    6.000    mass and valenz
   ENMAX  =  258.689; ENMIN  =  194.016 eV

  PAW_PBE Mo 08Apr2002                  :
  PAW_PBE S 06Sep2000                   :

 POSCAR: Mo1S2
  positions in direct lattice
  velocities in cartesian coordinates
 exchange correlation table for  LEXCH =        8
   RHO(1)=    0.500       N(1)  =     2000
   RHO(2)=  100.500       N(2)  =     4000

 ion  position               nearest neighbor table
   1  0.667  0.333  0.168-   2 2.41   3 2.41   2 2.41   2 2.41   3 2.41   3 2.41
   2  0.333  0.667  0.091-   1 2.41   1 2.41   1 2.41
   3  0.333  0.667  0.245-   1 2.41   1 2.41   1 2.41

  LATTYP: Found a hexagonal cell.
 ALAT       =     3.1830599308
 C/A-ratio  =     6.3680761512

  Lattice vectors:

 A1 = (   3.1830599308,   0.0000000000,   0.0000000000)
 A2 = (  -1.5915299654,   2.7566107618,   0.0000000000)
 A3 = (   0.0000026991,   0.0000109083,  20.2699680328)

Analysis of symmetry for initial positions (statically):
 Subroutine PRICEL returns:
 Original cell was already a primitive cell.

 Routine SETGRP: Setting up the symmetry group for a
 hexagonal supercell.

 Subroutine GETGRP returns: Found  4 space group operations
 (whereof  1 operations were pure point group operations)
 out of a pool of 24 trial point group operations.

The static configuration has the point symmetry C_1 .
 The point group associated with its full space group is C_2v.

Analysis of symmetry for dynamics (positions and initial velocities):
 Subroutine PRICEL returns:
 Original cell was already a primitive cell.

 Routine SETGRP: Setting up the symmetry group for a
 hexagonal supercell.

 Subroutine GETGRP returns: Found  4 space group operations
 (whereof  1 operations were pure point group operations)
 out of a pool of 24 trial point group operations.

The dynamic configuration has the point symmetry C_1 .
 The point group associated with its full space group is C_2v.

 Subroutine INISYM returns: Found  4 space group operations
 (whereof  1 operations are pure point group operations),
 and found     1 'primitive' translations

 KPOINTS: Hexagonal M-K-G-M
  interpolating k-points between supplied coordinates
  k-points in reciprocal lattice
Space group operators:
 irot       det(A)        alpha          n_x          n_y          n_z        tau_x        tau_y        tau_z
    1     1.000000     0.000000     1.000000     0.000000     0.000000     0.000000     0.000000     0.000000
    2    -1.000000   180.000000     0.000000     0.000000     1.000000     0.000000     0.000000     0.335628
    3    -1.000000   180.000000    -0.500000     0.866025    -0.000000     0.000000     0.999974     0.000000
    4     1.000000   180.000000    -0.866025    -0.500000     0.000000    -0.000000     0.999974     0.335628

 SYSTEM =  MoS2
 POSCAR =  Mo1S2

 Startparameter for this run:
   NWRITE =      2    write-flag & timer
   PREC   = normal    normal or accurate (medium, high low for compatibility)
   ISTART =      0    job   : 0-new  1-cont  2-samecut
   ICHARG =     11    charge: 1-file 2-atom 10-const
   ISPIN  =      1    spin polarized calculation?
   LNONCOLLINEAR =      F non collinear calculations
   LSORBIT =      F    spin-orbit coupling
   INIWAV =      1    electr: 0-lowe 1-rand  2-diag
   LASPH  =      F    aspherical Exc in radial PAW
   METAGGA=      F    non-selfconsistent MetaGGA calc.

 Electronic Relaxation 1
   ENCUT  =  500.0 eV  36.75 Ry    6.06 a.u.   5.80  5.80 36.96*2*pi/ulx,y,z
   ENINI  =  500.0     initial cutoff
   ENAUG  =  345.3 eV  augmentation charge cutoff
   NELM   =    300;   NELMIN=  2; NELMDL= -5     # of ELM steps
   EDIFF  = 0.1E-05   stopping-criterion for ELM
   LREAL  =      F    real-space projection
   NLSPLINE    = F    spline interpolate recip. space projectors
   LCOMPAT=      F    compatible to vasp.4.4
   GGA_COMPAT  = T    GGA compatible to vasp.4.4-vasp.4.6
   LMAXPAW     = -100 max onsite density
   LMAXMIX     =    2 max onsite mixed and CHGCAR
   VOSKOWN=      0    Vosko Wilk Nusair interpolation
   ROPT   =    0.00000   0.00000
 Ionic relaxation
   EDIFFG = 0.1E-04   stopping-criterion for IOM
   NSW    =      0    number of steps for IOM
   NBLOCK =      1;   KBLOCK =      1    inner block; outer block
   IBRION =     -1    ionic relax: 0-MD 1-quasi-New 2-CG
   NFREE  =      0    steps in history (QN), initial steepest desc. (CG)
   ISIF   =      2    stress and relaxation
   IWAVPR =     10    prediction:  0-non 1-charg 2-wave 3-comb
   ISYM   =      2    0-nonsym 1-usesym 2-fastsym
   LCORR  =      T    Harris-Foulkes like correction to forces

   POTIM  = 0.5000    time-step for ionic-motion
   TEIN   =    0.0    initial temperature
   TEBEG  =    0.0;   TEEND  =   0.0 temperature during run
   SMASS  =  -3.00    Nose mass-parameter (am)
   estimated Nose-frequenzy (Omega)   =  0.10E-29 period in steps =****** mass=  -0.232E-27a.u.
   SCALEE = 1.0000    scale energy and forces
   NPACO  =    256;   APACO  = 16.0  distance and # of slots for P.C.
   PSTRESS=    0.0 pullay stress

  Mass of Ions in am
   POMASS =  95.94 32.07
  Ionic Valenz
   ZVAL   =   6.00  6.00
  Atomic Wigner-Seitz radii
  virtual crystal weights
   VCA    =   1.00  1.00
   NELECT =      18.0000    total number of electrons
   NUPDOWN=      -1.0000    fix difference up-down

 DOS related values:
   EMIN   =  10.00;   EMAX   =-10.00  energy-range for DOS
   EFERMI =   0.00
   ISMEAR =     0;   SIGMA  =   0.05  broadening in eV -4-tet -1-fermi 0-gaus

 Electronic relaxation 2 (details)
   IALGO  =     38    algorithm
   LDIAG  =      T    sub-space diagonalisation (order eigenvalues)
   LSUBROT=      F    optimize rotation matrix (better conditioning)
   TURBO    =      0    0=normal 1=particle mesh
   IRESTART =      0    0=no restart 2=restart with 2 vectors
   NREBOOT  =      0    no. of reboots
   NMIN     =      0    reboot dimension
   EREF     =   0.00    reference energy to select bands
   IMIX   =      4    mixing-type and parameters
     AMIX     =   0.40;   BMIX     =  1.00
     AMIX_MAG =   1.60;   BMIX_MAG =  1.00
     AMIN     =   0.10
     WC   =   100.;   INIMIX=   1;  MIXPRE=   1;  MAXMIX= -45

 Intra band minimization:
   WEIMIN = 0.0000     energy-eigenvalue tresh-hold
   EBREAK =  0.16E-07  absolut break condition
   DEPER  =   0.30     relativ break condition

   TIME   =   0.40     timestep for ELM

  volume/ion in A,a.u.               =      59.29       400.08
  Fermi-wavevector in a.u.,A,eV,Ry     =   0.762912  1.441695  7.919067  0.582035
  Thomas-Fermi vector in A             =   1.862478

 Write flags
   LWAVE        =      F    write WAVECAR
   LDOWNSAMPLE  =      F    k-point downsampling of WAVECAR
   LCHARG       =      F    write CHGCAR
   LVTOT        =      F    write LOCPOT, total local potential
   LVHAR        =      F    write LOCPOT, Hartree potential only
   LELF         =      F    write electronic localiz. function (ELF)
   LORBIT       =     11    0 simple, 1 ext, 2 COOP (PROOUT), +10 PAW based schemes

 Dipole corrections
   LMONO  =      F    monopole corrections only (constant potential shift)
   LDIPOL =      F    correct potential (dipole corrections)
   IDIPOL =      0    1-x, 2-y, 3-z, 4-all directions
   EPSILON=  1.0000000 bulk dielectric constant

 Exchange correlation treatment:
   GGA     =    --    GGA type
   VOSKOWN=      0    Vosko Wilk Nusair interpolation
   LHFCALC =     F    Hartree Fock is set to
   LHFONE  =     F    Hartree Fock one center treatment
   AEXX    =    0.0000 exact exchange contribution

 Linear response parameters
   LEPSILON=     F    determine dielectric tensor
   LRPA    =     F    only Hartree local field effects (RPA)
   LNABLA  =     F    use nabla operator in PAW spheres
   LVEL    =     F    velocity operator in full k-point grid
   LINTERFAST=   F  fast interpolation
   KINTER  =     0    interpolate to denser k-point grid
   CSHIFT  =0.1000    complex shift for real part using Kramers Kronig
   OMEGAMAX=  -1.0    maximum frequency
   DEG_THRESHOLD= 0.2000000E-02 threshold for treating states as degnerate
   RTIME   =   -0.100 relaxation time in fs
  (WPLASMAI=    0.000 imaginary part of plasma frequency in eV, 0.658/RTIME)
   DFIELD  = 0.0000000 0.0000000 0.0000000 field for delta impulse in time

 Orbital magnetization related:
   ORBITALMAG=     F  switch on orbital magnetization
   LCHIMAG   =     F  perturbation theory with respect to B field
   DQ        =  0.001000  dq finite difference perturbation B field
   LLRAUG    =     F  two centre corrections for induced B field

 Static calculation
 charge density and potential remain constant during run
 non-spin polarized calculation
 Variant of blocked Davidson
 Davidson routine will perform the subspace rotation
 perform sub-space diagonalisation
    after iterative eigenvector-optimisation
 no mixing
 using additional bands            7
 reciprocal scheme for non local part
 use partial core corrections
 calculate Harris-corrections to forces
   (improved forces if not selfconsistent)
 use gradient corrections
 WARNING: stress and forces are not correct
  (second derivative of E(xc) not defined)
 use of overlap-Matrix (Vanderbilt PP)
 Gauss-broadening in eV      SIGMA  =   0.05

  energy-cutoff  :      500.00
  volume of cell :      177.86
      direct lattice vectors                 reciprocal lattice vectors
     3.183059931  0.000000000  0.000000000     0.314163108  0.181382155 -0.000000139
    -1.591529965  2.756610762  0.000000000     0.000000000  0.362764310 -0.000000195
     0.000002699  0.000010908 20.269968033     0.000000000  0.000000000  0.049334069

  length of vectors
     3.183059931  3.183059931 20.269968033     0.362764310  0.362764310  0.049334069

 k-points in units of 2pi/SCALE and weight: Hexagonal M-K-G-M
   0.15708155  0.09069108 -0.00000007       0.007
   0.15601297  0.09254192 -0.00000007       0.007
   0.15494439  0.09439275 -0.00000007       0.007
   0.15387581  0.09624359 -0.00000007       0.007
   0.15280723  0.09809443 -0.00000007       0.007
   0.15173864  0.09994527 -0.00000007       0.007
   0.15067006  0.10179611 -0.00000007       0.007
   0.14960148  0.10364695 -0.00000008       0.007
   0.14853290  0.10549778 -0.00000008       0.007
   0.14746432  0.10734862 -0.00000008       0.007
   0.14639573  0.10919946 -0.00000008       0.007
   0.14532715  0.11105030 -0.00000008       0.007
   0.14425857  0.11290114 -0.00000008       0.007
   0.14318999  0.11475198 -0.00000008       0.007
   0.14212141  0.11660281 -0.00000008       0.007
   0.14105282  0.11845365 -0.00000008       0.007
   0.13998424  0.12030449 -0.00000008       0.007
   0.13891566  0.12215533 -0.00000008       0.007
[...]
   0.29931973  0.29931973  0.00000000       0.007
   0.29251701  0.29251701  0.00000000       0.007
   0.28571429  0.28571429  0.00000000       0.007
   0.27891156  0.27891156  0.00000000       0.007
   0.27210884  0.27210884  0.00000000       0.007
[...]
   0.35714286  0.00000000  0.00000000       0.007
   0.36734694  0.00000000  0.00000000       0.007
   0.37755102  0.00000000  0.00000000       0.007
   0.38775510  0.00000000  0.00000000       0.007
   0.39795918  0.00000000  0.00000000       0.007
   0.40816327  0.00000000  0.00000000       0.007
   0.41836735  0.00000000  0.00000000       0.007
   0.42857143  0.00000000  0.00000000       0.007
   0.43877551  0.00000000  0.00000000       0.007
   0.44897959  0.00000000  0.00000000       0.007
   0.45918367  0.00000000  0.00000000       0.007
   0.46938776  0.00000000  0.00000000       0.007
   0.47959184  0.00000000  0.00000000       0.007
   0.48979592  0.00000000  0.00000000       0.007
   0.50000000  0.00000000  0.00000000       0.007

 position of ions in fractional coordinates (direct lattice)
   0.66666932  0.33332178  0.16781410
   0.33331886  0.66664608  0.09067811
   0.33331881  0.66664612  0.24495119

 position of ions in cartesian coordinates  (Angst):
   1.59155727  0.91884023  3.40158652
  -0.00001306  1.83768475  1.83804237
  -0.00001286  1.83768654  4.96515275

 k-point  1 :   0.5000 0.0000 0.0000  plane waves:    4532
 k-point  2 :   0.4966 0.0068 0.0000  plane waves:    4528
 k-point  3 :   0.4932 0.0136 0.0000  plane waves:    4528
 k-point  4 :   0.4898 0.0204 0.0000  plane waves:    4524
 k-point  5 :   0.4864 0.0272 0.0000  plane waves:    4526
 k-point  6 :   0.4830 0.0340 0.0000  plane waves:    4534
 k-point  7 :   0.4796 0.0408 0.0000  plane waves:    4534
 k-point  8 :   0.4762 0.0476 0.0000  plane waves:    4538
 k-point  9 :   0.4728 0.0544 0.0000  plane waves:    4534
 k-point 10 :   0.4694 0.0612 0.0000  plane waves:    4522
 k-point 11 :   0.4660 0.0680 0.0000  plane waves:    4534
 k-point 12 :   0.4626 0.0748 0.0000  plane waves:    4528
 k-point 13 :   0.4592 0.0816 0.0000  plane waves:    4536
 k-point 14 :   0.4558 0.0884 0.0000  plane waves:    4536
 k-point 15 :   0.4524 0.0952 0.0000  plane waves:    4536
 k-point 16 :   0.4490 0.1020 0.0000  plane waves:    4538
 k-point 17 :   0.4456 0.1088 0.0000  plane waves:    4534
 k-point 18 :   0.4422 0.1156 0.0000  plane waves:    4534
 k-point 19 :   0.4388 0.1224 0.0000  plane waves:    4528
 k-point 20 :   0.4354 0.1293 0.0000  plane waves:    4528
 k-point 21 :   0.4320 0.1361 0.0000  plane waves:    4524
 k-point 22 :   0.4286 0.1429 0.0000  plane waves:    4528
 k-point 23 :   0.4252 0.1497 0.0000  plane waves:    4520
 k-point 24 :   0.4218 0.1565 0.0000  plane waves:    4518
 k-point 25 :   0.4184 0.1633 0.0000  plane waves:    4516
 k-point 26 :   0.4150 0.1701 0.0000  plane waves:    4506
 k-point 27 :   0.4116 0.1769 0.0000  plane waves:    4498
 k-point 28 :   0.4082 0.1837 0.0000  plane waves:    4498
 k-point 29 :   0.4048 0.1905 0.0000  plane waves:    4494
 k-point 30 :   0.4014 0.1973 0.0000  plane waves:    4498
 k-point 31 :   0.3980 0.2041 0.0000  plane waves:    4490
 k-point 32 :   0.3946 0.2109 0.0000  plane waves:    4490
 k-point 33 :   0.3912 0.2177 0.0000  plane waves:    4482
 k-point 34 :   0.3878 0.2245 0.0000  plane waves:    4478
 k-point 35 :   0.3844 0.2313 0.0000  plane waves:    4502
 k-point 36 :   0.3810 0.2381 0.0000  plane waves:    4500
 k-point 37 :   0.3776 0.2449 0.0000  plane waves:    4504
 k-point 38 :   0.3741 0.2517 0.0000  plane waves:    4500
 k-point 39 :   0.3707 0.2585 0.0000  plane waves:    4512
 k-point 40 :   0.3673 0.2653 0.0000  plane waves:    4516
 k-point 41 :   0.3639 0.2721 0.0000  plane waves:    4512
 k-point 42 :   0.3605 0.2789 0.0000  plane waves:    4512
 k-point 43 :   0.3571 0.2857 0.0000  plane waves:    4512
 k-point 44 :   0.3537 0.2925 0.0000  plane waves:    4508
 k-point 45 :   0.3503 0.2993 0.0000  plane waves:    4508
 k-point 46 :   0.3469 0.3061 0.0000  plane waves:    4510
 k-point 47 :   0.3435 0.3129 0.0000  plane waves:    4500
 k-point 48 :   0.3401 0.3197 0.0000  plane waves:    4496
 k-point 49 :   0.3367 0.3265 0.0000  plane waves:    4486
 k-point 50 :   0.3333 0.3333 0.0000  plane waves:    4482
 k-point 51 :   0.3333 0.3333 0.0000  plane waves:    4482
 k-point 52 :   0.3265 0.3265 0.0000  plane waves:    4490
 k-point 53 :   0.3197 0.3197 0.0000  plane waves:    4498
 k-point 54 :   0.3129 0.3129 0.0000  plane waves:    4504
 k-point 55 :   0.3061 0.3061 0.0000  plane waves:    4506
 k-point 56 :   0.2993 0.2993 0.0000  plane waves:    4516
 k-point 57 :   0.2925 0.2925 0.0000  plane waves:    4518
 k-point 58 :   0.2857 0.2857 0.0000  plane waves:    4506
 k-point 59 :   0.2789 0.2789 0.0000  plane waves:    4512
 k-point 60 :   0.2721 0.2721 0.0000  plane waves:    4508
[...]
 k-point 85 :   0.1020 0.1020 0.0000  plane waves:    4490
 k-point 86 :   0.0952 0.0952 0.0000  plane waves:    4495
 k-point 87 :   0.0884 0.0884 0.0000  plane waves:    4499
 k-point 88 :   0.0816 0.0816 0.0000  plane waves:    4495
 k-point 89 :   0.0748 0.0748 0.0000  plane waves:    4499
 k-point 90 :   0.0680 0.0680 0.0000  plane waves:    4493
 k-point 91 :   0.0612 0.0612 0.0000  plane waves:    4491
 k-point 92 :   0.0544 0.0544 0.0000  plane waves:    4499
 k-point 93 :   0.0476 0.0476 0.0000  plane waves:    4507
 k-point 94 :   0.0408 0.0408 0.0000  plane waves:    4499
 k-point 95 :   0.0340 0.0340 0.0000  plane waves:    4491
 k-point 96 :   0.0272 0.0272 0.0000  plane waves:    4491
 k-point 97 :   0.0204 0.0204 0.0000  plane waves:    4487
 k-point 98 :   0.0136 0.0136 0.0000  plane waves:    4487
 k-point 99 :   0.0068 0.0068 0.0000  plane waves:    4491
 k-point ** :   0.0000 0.0000 0.0000  plane waves:    4495
 k-point ** :   0.0000 0.0000 0.0000  plane waves:    4495
 k-point ** :   0.0102 0.0000 0.0000  plane waves:    4499
 k-point ** :   0.0204 0.0000 0.0000  plane waves:    4487
 k-point ** :   0.0306 0.0000 0.0000  plane waves:    4486
 k-point ** :   0.0408 0.0000 0.0000  plane waves:    4482
 k-point ** :   0.0510 0.0000 0.0000  plane waves:    4482
 k-point ** :   0.0612 0.0000 0.0000  plane waves:    4492
 k-point ** :   0.0714 0.0000 0.0000  plane waves:    4498
 k-point ** :   0.0816 0.0000 0.0000  plane waves:    4498
 k-point ** :   0.0918 0.0000 0.0000  plane waves:    4502
 k-point ** :   0.1020 0.0000 0.0000  plane waves:    4496
 k-point ** :   0.1122 0.0000 0.0000  plane waves:    4492
 k-point ** :   0.1224 0.0000 0.0000  plane waves:    4486
 k-point ** :   0.1327 0.0000 0.0000  plane waves:    4480
 k-point ** :   0.1429 0.0000 0.0000  plane waves:    4492
 k-point ** :   0.1531 0.0000 0.0000  plane waves:    4496
 k-point ** :   0.1633 0.0000 0.0000  plane waves:    4498
 k-point ** :   0.1735 0.0000 0.0000  plane waves:    4506
 k-point ** :   0.1837 0.0000 0.0000  plane waves:    4508
 k-point ** :   0.1939 0.0000 0.0000  plane waves:    4512
 k-point ** :   0.2041 0.0000 0.0000  plane waves:    4520
 k-point ** :   0.2143 0.0000 0.0000  plane waves:    4524
 k-point ** :   0.2245 0.0000 0.0000  plane waves:    4512
 k-point ** :   0.2347 0.0000 0.0000  plane waves:    4514
 k-point ** :   0.2449 0.0000 0.0000  plane waves:    4514
 k-point ** :   0.2551 0.0000 0.0000  plane waves:    4516
 k-point ** :   0.2653 0.0000 0.0000  plane waves:    4512
 k-point ** :   0.2755 0.0000 0.0000  plane waves:    4504
 k-point ** :   0.2857 0.0000 0.0000  plane waves:    4520
 k-point ** :   0.2959 0.0000 0.0000  plane waves:    4522
 k-point ** :   0.3061 0.0000 0.0000  plane waves:    4520
 k-point ** :   0.3163 0.0000 0.0000  plane waves:    4522
 k-point ** :   0.3265 0.0000 0.0000  plane waves:    4514
 k-point ** :   0.3367 0.0000 0.0000  plane waves:    4518
 k-point ** :   0.3469 0.0000 0.0000  plane waves:    4518
 k-point ** :   0.3571 0.0000 0.0000  plane waves:    4528
 k-point ** :   0.3673 0.0000 0.0000  plane waves:    4526
 k-point ** :   0.3776 0.0000 0.0000  plane waves:    4526
 k-point ** :   0.3878 0.0000 0.0000  plane waves:    4532
 k-point ** :   0.3980 0.0000 0.0000  plane waves:    4530
 k-point ** :   0.4082 0.0000 0.0000  plane waves:    4528
 k-point ** :   0.4184 0.0000 0.0000  plane waves:    4548
 k-point ** :   0.4286 0.0000 0.0000  plane waves:    4542
 k-point ** :   0.4388 0.0000 0.0000  plane waves:    4540
 k-point ** :   0.4490 0.0000 0.0000  plane waves:    4532
 k-point ** :   0.4592 0.0000 0.0000  plane waves:    4530
 k-point ** :   0.4694 0.0000 0.0000  plane waves:    4532
 k-point ** :   0.4796 0.0000 0.0000  plane waves:    4526
 k-point ** :   0.4898 0.0000 0.0000  plane waves:    4532
 k-point ** :   0.5000 0.0000 0.0000  plane waves:    4532

 maximum and minimum number of plane-waves per node :       662      620

 maximum number of plane-waves:      4548
 maximum index in each direction:
   IXMAX=    5   IYMAX=    5   IZMAX=   36
   IXMIN=   -6   IYMIN=   -6   IZMIN=  -36

 parallel 3D FFT for wavefunctions:
    minimum data exchange during FFTs selected (reduces bandwidth)
 parallel 3D FFT for charge:
    minimum data exchange during FFTs selected (reduces bandwidth)

 initial charge density was supplied:
 number of electron      18.0000013 magnetization
 keeping initial charge density in first step

 Maximum index for augmentation-charges          826 (set IRDMAX)

 First call to EWALD:  gamma=   0.315
 Maximum number of real-space cells 5x 5x 1
 Maximum number of reciprocal cells 2x 2x 9

--------------------------------------- Iteration      1(   1)  ---------------------------------------

 eigenvalue-minimisations  :  4800
 total energy-change (2. order) : 0.1165016E+03  (-0.6092016E+03)
 number of electron      18.0000013 magnetization
 augmentation part       18.0000013 magnetization

 Free energy of the ion-electron system (eV)
  alpha Z        PSCENC =        16.67021146
  Ewald energy   TEWEN  =      2536.01924891
  -Hartree energ DENC   =     -3249.40427490
  -exchange      EXHF   =         0.00000000
  -V(xc)+E(xc)   XCENC  =       -35.15763025
  PAW double counting   =      1604.01216635    -1528.22186513
  entropy T*S    EENTRO =        -0.00237096
  eigenvalues    EBANDS =         1.42819806
  atomic energy  EATOM  =       771.15796241
  Solvation  Ediel_sol  =         0.00000000
  free energy    TOTEN  =       116.50164595 eV

  energy without entropy =      116.50401691  energy(sigma->0) =      116.50283143

[...]

 eigenvalue-minimisations  :  7328
 total energy-change (2. order) :-0.1266063E+03  (-0.1154409E+03)
 number of electron      18.0000013 magnetization
 augmentation part       18.0000013 magnetization

[...]

--------------------------------------- Iteration      1(   8)  ---------------------------------------

 eigenvalue-minimisations  :  6008
 total energy-change (2. order) :-0.2687630E-06  (-0.2687868E-06)
 number of electron      18.0000013 magnetization
 augmentation part       18.0000013 magnetization

 Free energy of the ion-electron system (eV)
  alpha Z        PSCENC =        16.67021146
  Ewald energy   TEWEN  =      2536.01924891
  -Hartree energ DENC   =     -3249.40427490
  -exchange      EXHF   =         0.00000000
  -V(xc)+E(xc)   XCENC  =       -35.15763025
  PAW double counting   =      1604.01216635    -1528.22186513
  entropy T*S    EENTRO =        -0.00000000
  eigenvalues    EBANDS =      -136.56838715
  atomic energy  EATOM  =       771.15796241
  Solvation  Ediel_sol  =         0.00000000
  free energy    TOTEN  =       -21.49256830 eV

  energy without entropy =      -21.49256830  energy(sigma->0) =      -21.49256830

 average (electrostatic) potential at core
  the test charge radii are     1.2296  0.9698
  (the norm of the test charge is              1.0000)
       1 -46.0267       2 -93.8825       3 -93.8831

 E-fermi :  -2.3532     XC(G=0):  -3.7487     alpha+bet : -3.5530

 k-point     1 :       0.5000    0.0000    0.0000
  band No.  band energies     occupation
      1     -14.8526      2.00000
      2     -14.6127      2.00000
      3      -8.3400      2.00000
      4      -7.3764      2.00000
      5      -6.6605      2.00000
      6      -5.7415      2.00000
      7      -4.4603      2.00000
      8      -3.5420      2.00000
      9      -3.2353      2.00000
     10      -0.4002      0.00000
     11       0.1125      0.00000
     12       1.3200      0.00000
     13       1.6772      0.00000
     14       3.5876      0.00000
     15       5.3695      0.00000
     16       5.6852      0.00000

[...]

 k-point   150 :       0.5000    0.0000    0.0000
  band No.  band energies     occupation
      1     -14.8526      2.00000
      2     -14.6127      2.00000
      3      -8.3400      2.00000
      4      -7.3764      2.00000
      5      -6.6605      2.00000
      6      -5.7415      2.00000
      7      -4.4603      2.00000
      8      -3.5420      2.00000
      9      -3.2353      2.00000
     10      -0.4002      0.00000
     11       0.1125      0.00000
     12       1.3200      0.00000
     13       1.6772      0.00000
     14       3.5876      0.00000
     15       5.3695      0.00000
     16       5.6852      0.00000

 soft charge-density along one line, spin component           1
         0         1         2         3         4         5         6         7         8         9
 total charge-density along one line

------------------------ aborting loop because EDIFF is reached ----------------------------------------

 total charge

# of ion       s       p       d       tot
    1        0.410   0.582   4.518   5.511
    2        1.356   2.302   0.000   3.658
    3        1.356   2.302   0.000   3.658
tot          3.122   5.186   4.518  12.827

  FORCE on cell =-STRESS in cart. coord.  units (eV):
  Direction    XX          YY          ZZ          XY          YZ          ZX
  Alpha Z    16.67021    16.67021    16.67021
  Ewald    3104.00592  3103.99999 -3671.98698     0.00480    -0.00007    -0.00001
  Hartree  3213.88868  3214.35598 -3175.84318    -0.40467     0.00001    -0.00000
  E(xc)     -69.74910   -70.81970   -70.92049     0.92717     0.00000     0.00000
  Local   -6597.14916 -6603.61169  6557.67336     5.59671    -0.00007    -0.00003
  n-local   123.40751   123.05359   129.61310    -0.12314    -0.00005    -0.00013
  augment   -24.96216   -24.53813   -26.24026    -0.36708    -0.00000     0.00000
  Kinetic   234.93733   239.42147   241.99233    -6.26438     0.00004     0.00006
  Fock        0.00000     0.00000     0.00000     0.00000     0.00000     0.00000
  Total      -0.16749    -0.25157     0.95810     0.07282     0.00000     0.00000
  in kB      -1.50875    -2.26617     8.63071     0.65594     0.00000     0.00000

 VOLUME and BASIS-vectors are now :
  energy-cutoff  :      500.00
  volume of cell :      177.86
      direct lattice vectors                 reciprocal lattice vectors
     3.183059931  0.000000000  0.000000000     0.314163108  0.181382155 -0.000000139
    -1.591529965  2.756610762  0.000000000     0.000000000  0.362764310 -0.000000195
     0.000002699  0.000010908 20.269968033     0.000000000  0.000000000  0.049334069

  length of vectors
     3.183059931  3.183059931 20.269968033     0.362764310  0.362764310  0.049334069

 FORCES acting on ions
    electron-ion (+dipol)            ewald-force                    non-local-force                 convergence-correction
   -.328E+00 -.189E+00 -.261E-04   -.235E-02 -.145E-02 -.480E-03   -.351E-01 -.203E-01 0.000E+00   0.883E-01 0.509E-01 0.881E-03
   0.151E+01 0.875E+00 0.543E+03   0.118E-02 0.747E-03 -.544E+03   -.423E+00 -.244E+00 0.382E+01   -.875E+00 -.505E+00 -.203E+01
   0.151E+01 0.875E+00 -.543E+03   0.117E-02 0.702E-03 0.544E+03   -.423E+00 -.244E+00 -.382E+01   -.875E+00 -.505E+00 0.203E+01
   0.270E+01 0.156E+01 -.172E-01   -.355E-14 0.694E-15 -.114E-12   -.882E+00 -.509E+00 0.000E+00   -.166E+01 -.959E+00 0.256E-02

 POSITION                                       TOTAL-FORCE (eV/Angst)
      1.59156      0.91884      3.40159        -0.329822     -0.190423     -0.000000
     -0.00001      1.83768      1.83804         0.164911      0.095211     -0.086132
     -0.00001      1.83769      4.96515         0.164911      0.095212      0.086132
    total drift:                                0.156684      0.092181     -0.014616

  FREE ENERGIE OF THE ION-ELECTRON SYSTEM (eV)
  free  energy   TOTEN  =       -21.49256830 eV

  energy  without entropy=      -21.49256830  energy(sigma->0) =      -21.49256830

 total charge

# of ion       s       p       d       tot
    1        0.410   0.582   4.518   5.511
    2        1.356   2.302   0.000   3.658
    3        1.356   2.302   0.000   3.658
tot          3.122   5.186   4.518  12.827