 vasp.5.4.4.18Apr17-6-g9f103f2a35 (build May 24 2018 15:12:59) complex

 executed on             LinuxIFC date 2018.11.27  15:31:36

 INCAR:
 POTCAR:    PAW_PBE Mo 08Apr2002
 POTCAR:    PAW_PBE S 06Sep2000
 POTCAR:    PAW_PBE Mo 08Apr2002
   VRHFIN =Mo: 4p5s4d

   TITEL  = PAW_PBE Mo 08Apr2002
   POMASS =   95.940; ZVAL   =    6.000    mass and valenz
   ENMAX  =  224.584; ENMIN  =  168.438 eV

 POTCAR:    PAW_PBE S 06Sep2000
   VRHFIN =S : s2p4

   TITEL  = PAW_PBE S 06Sep2000
   POMASS =   32.066; ZVAL   =    6.000    mass and valenz
   ENMAX  =  258.689; ENMIN  =  194.016 eV

  PAW_PBE Mo 08Apr2002                  :
  PAW_PBE S 06Sep2000                   :

 POSCAR: Mo1S2
  positions in direct lattice
  velocities in cartesian coordinates
 exchange correlation table for  LEXCH =        8
   RHO(1)=    0.500       N(1)  =     2000
   RHO(2)=  100.500       N(2)  =     4000

 ion  position               nearest neighbor table
   1  0.667  0.333  0.168-   2 2.41   3 2.41   2 2.41   2 2.41   3 2.41   3 2.41
   2  0.333  0.667  0.091-   1 2.41   1 2.41   1 2.41
   3  0.333  0.667  0.245-   1 2.41   1 2.41   1 2.41

  LATTYP: Found a hexagonal cell.
 ALAT       =     3.1830599308
 C/A-ratio  =     6.3680761512

  Lattice vectors:

 A1 = (   3.1830599308,   0.0000000000,   0.0000000000)
 A2 = (  -1.5915299654,   2.7566107618,   0.0000000000)
 A3 = (   0.0000026991,   0.0000109083,  20.2699680328)

Analysis of symmetry for initial positions (statically):
 Subroutine PRICEL returns:
 Original cell was already a primitive cell.

 Routine SETGRP: Setting up the symmetry group for a
 hexagonal supercell.

 Subroutine GETGRP returns: Found  4 space group operations
 (whereof  1 operations were pure point group operations)
 out of a pool of 24 trial point group operations.

The static configuration has the point symmetry C_1 .
 The point group associated with its full space group is C_2v.

Analysis of symmetry for dynamics (positions and initial velocities):
 Subroutine PRICEL returns:
 Original cell was already a primitive cell.

 Routine SETGRP: Setting up the symmetry group for a
 hexagonal supercell.

 Subroutine GETGRP returns: Found  4 space group operations
 (whereof  1 operations were pure point group operations)
 out of a pool of 24 trial point group operations.

The dynamic configuration has the point symmetry C_1 .
 The point group associated with its full space group is C_2v.

 Subroutine INISYM returns: Found  4 space group operations
 (whereof  1 operations are pure point group operations),
 and found     1 'primitive' translations

 KPOINTS: K-Points

Automatic generation of k-mesh.
Space group operators:
 irot       det(A)        alpha          n_x          n_y          n_z        tau_x        tau_y        tau_z
    1     1.000000     0.000000     1.000000     0.000000     0.000000     0.000000     0.000000     0.000000
    2    -1.000000   180.000000     0.000000     0.000000     1.000000     0.000000     0.000000     0.335628
    3    -1.000000   180.000000    -0.500000     0.866025    -0.000000     0.000000     0.999974     0.000000
    4     1.000000   180.000000    -0.866025    -0.500000     0.000000    -0.000000     0.999974     0.335628

 Subroutine IBZKPT returns following result:

 Found    111 irreducible k-points:

 Following reciprocal coordinates:
            Coordinates               Weight
  0.000000  0.000000  0.000000      1.000000
  0.050000 -0.000000 -0.000000      2.000000
  0.100000 -0.000000 -0.000000      2.000000
  0.150000  0.000000 -0.000000      2.000000
  0.200000  0.000000  0.000000      2.000000
  0.250000  0.000000 -0.000000      2.000000
  0.300000  0.000000  0.000000      2.000000
  0.350000  0.000000 -0.000000      2.000000
  0.400000  0.000000  0.000000      2.000000
  0.450000  0.000000  0.000000      2.000000
  0.500000  0.000000 -0.000000      1.000000
  0.000000  0.050000  0.000000      4.000000
  0.050000  0.050000 -0.000000      4.000000
  0.100000  0.050000 -0.000000      4.000000
  0.150000  0.050000 -0.000000      4.000000
  0.200000  0.050000  0.000000      4.000000
  0.250000  0.050000 -0.000000      4.000000
  0.300000  0.050000  0.000000      4.000000
  0.350000  0.050000 -0.000000      4.000000
  0.400000  0.050000  0.000000      4.000000
  0.450000  0.050000  0.000000      4.000000
  0.000000  0.100000  0.000000      4.000000
  0.050000  0.100000  0.000000      4.000000
  0.100000  0.100000 -0.000000      4.000000
  0.150000  0.100000  0.000000      4.000000
  0.200000  0.100000  0.000000      4.000000
  0.250000  0.100000  0.000000      4.000000
  0.300000  0.100000 -0.000000      4.000000
  0.350000  0.100000 -0.000000      4.000000
  0.400000  0.100000  0.000000      4.000000
  0.450000  0.100000  0.000000      2.000000
 -0.050000  0.100000  0.000000      2.000000
  0.000000  0.150000 -0.000000      4.000000
  0.050000  0.150000 -0.000000      4.000000
  0.100000  0.150000 -0.000000      4.000000
  0.150000  0.150000  0.000000      4.000000
  0.200000  0.150000 -0.000000      4.000000
  0.250000  0.150000 -0.000000      4.000000
  0.300000  0.150000  0.000000      4.000000
  0.350000  0.150000 -0.000000      4.000000
  0.400000  0.150000  0.000000      4.000000
 -0.100000  0.150000 -0.000000      4.000000
  0.000000  0.200000 -0.000000      4.000000
  0.050000  0.200000  0.000000      4.000000
  0.100000  0.200000 -0.000000      4.000000
  0.150000  0.200000 -0.000000      4.000000
  0.200000  0.200000 -0.000000      4.000000
  0.250000  0.200000  0.000000      4.000000
  0.300000  0.200000  0.000000      4.000000
  0.350000  0.200000 -0.000000      4.000000
  0.400000  0.200000  0.000000      2.000000
 -0.150000  0.200000  0.000000      4.000000
 -0.100000  0.200000 -0.000000      2.000000
  0.000000  0.250000 -0.000000      4.000000
  0.050000  0.250000 -0.000000      4.000000
  0.100000  0.250000 -0.000000      4.000000
  0.150000  0.250000 -0.000000      4.000000
  0.200000  0.250000 -0.000000      4.000000
  0.250000  0.250000 -0.000000      4.000000
  0.300000  0.250000 -0.000000      4.000000
[...]
  0.050000  0.450000 -0.000000      4.000000
  0.100000  0.450000  0.000000      4.000000
  0.150000  0.450000 -0.000000      4.000000
  0.200000  0.450000 -0.000000      4.000000
  0.250000  0.450000 -0.000000      4.000000
 -0.400000  0.450000 -0.000000      4.000000
 -0.350000  0.450000  0.000000      4.000000
 -0.300000  0.450000 -0.000000      4.000000
 -0.250000  0.450000 -0.000000      4.000000
  0.000000  0.500000 -0.000000      2.000000
  0.050000  0.500000 -0.000000      4.000000
  0.100000  0.500000 -0.000000      4.000000
  0.150000  0.500000 -0.000000      4.000000
  0.200000  0.500000  0.000000      4.000000
  0.250000  0.500000  0.000000      2.000000

 Following cartesian coordinates:
            Coordinates               Weight
  0.000000  0.000000  0.000000      1.000000
  0.015708  0.009069 -0.000000      2.000000
  0.031416  0.018138 -0.000000      2.000000
  0.047124  0.027207 -0.000000      2.000000
  0.062833  0.036276 -0.000000      2.000000
  0.078541  0.045346 -0.000000      2.000000
  0.094249  0.054415 -0.000000      2.000000
  0.109957  0.063484 -0.000000      2.000000
  0.125665  0.072553 -0.000000      2.000000
  0.141373  0.081622 -0.000000      2.000000
  0.157082  0.090691 -0.000000      1.000000
  0.000000  0.018138 -0.000000      4.000000
  0.015708  0.027207 -0.000000      4.000000
  0.031416  0.036276 -0.000000      4.000000
  0.047124  0.045346 -0.000000      4.000000
  0.062833  0.054415 -0.000000      4.000000
  0.078541  0.063484 -0.000000      4.000000
  0.094249  0.072553 -0.000000      4.000000
  0.109957  0.081622 -0.000000      4.000000
  0.125665  0.090691 -0.000000      4.000000
  0.141373  0.099760 -0.000000      4.000000
  0.000000  0.036276 -0.000000      4.000000
  0.015708  0.045346 -0.000000      4.000000
  0.031416  0.054415 -0.000000      4.000000
  0.047124  0.063484 -0.000000      4.000000
  0.062833  0.072553 -0.000000      4.000000
  0.078541  0.081622 -0.000000      4.000000
  0.094249  0.090691 -0.000000      4.000000
  0.109957  0.099760 -0.000000      4.000000
  0.125665  0.108829 -0.000000      4.000000
  0.141373  0.117898 -0.000000      2.000000
 -0.015708  0.027207 -0.000000      2.000000
  0.000000  0.054415 -0.000000      4.000000
  0.015708  0.063484 -0.000000      4.000000
  0.031416  0.072553 -0.000000      4.000000
  0.047124  0.081622 -0.000000      4.000000
  0.062833  0.090691 -0.000000      4.000000
  0.078541  0.099760 -0.000000      4.000000
  0.094249  0.108829 -0.000000      4.000000
  0.109957  0.117898 -0.000000      4.000000
  0.125665  0.126968 -0.000000      4.000000
 -0.031416  0.036276 -0.000000      4.000000
  0.000000  0.072553 -0.000000      4.000000
  0.015708  0.081622 -0.000000      4.000000
  0.031416  0.090691 -0.000000      4.000000
  0.047124  0.099760 -0.000000      4.000000
  0.062833  0.108829 -0.000000      4.000000
  0.078541  0.117898 -0.000000      4.000000
  0.094249  0.126968 -0.000000      4.000000
  0.109957  0.136037 -0.000000      4.000000
  0.125665  0.145106 -0.000000      2.000000
 -0.047124  0.045346 -0.000000      4.000000
 -0.031416  0.054415 -0.000000      2.000000
  0.000000  0.090691 -0.000000      4.000000
  0.015708  0.099760 -0.000000      4.000000
  0.031416  0.108829 -0.000000      4.000000
  0.047124  0.117898 -0.000000      4.000000
  0.062833  0.126968 -0.000000      4.000000
  0.078541  0.136037 -0.000000      4.000000
  0.094249  0.145106 -0.000000      4.000000
[...]
  0.015708  0.172313 -0.000000      4.000000
  0.031416  0.181382 -0.000000      4.000000
  0.047124  0.190451 -0.000000      4.000000
  0.062833  0.199520 -0.000000      4.000000
  0.078541  0.208589 -0.000000      4.000000
 -0.125665  0.090691 -0.000000      4.000000
 -0.109957  0.099760 -0.000000      4.000000
 -0.094249  0.108829 -0.000000      4.000000
 -0.078541  0.117898 -0.000000      4.000000
  0.000000  0.181382 -0.000000      2.000000
  0.015708  0.190451 -0.000000      4.000000
  0.031416  0.199520 -0.000000      4.000000
  0.047124  0.208589 -0.000000      4.000000
  0.062833  0.217659 -0.000000      4.000000
  0.078541  0.226728 -0.000000      2.000000

 TETIRR: Found    610 inequivalent tetrahedra from     2400

 SYSTEM =  MoS2
 POSCAR =  Mo1S2

 Startparameter for this run:
   NWRITE =      2    write-flag & timer
   PREC   = normal    normal or accurate (medium, high low for compatibility)
   ISTART =      0    job   : 0-new  1-cont  2-samecut
   ICHARG =     11    charge: 1-file 2-atom 10-const
   ISPIN  =      1    spin polarized calculation?
   LNONCOLLINEAR =      F non collinear calculations
   LSORBIT =      F    spin-orbit coupling
   INIWAV =      1    electr: 0-lowe 1-rand  2-diag
   LASPH  =      F    aspherical Exc in radial PAW
   METAGGA=      F    non-selfconsistent MetaGGA calc.

 Electronic Relaxation 1
   ENCUT  =  500.0 eV  36.75 Ry    6.06 a.u.   5.80  5.80 36.96*2*pi/ulx,y,z
   ENINI  =  500.0     initial cutoff
   ENAUG  =  345.3 eV  augmentation charge cutoff
   NELM   =    300;   NELMIN=  2; NELMDL= -5     # of ELM steps
   EDIFF  = 0.1E-05   stopping-criterion for ELM
[...]
   0.25000000  0.05000000 -0.00000000       0.010
   0.30000000  0.05000000  0.00000000       0.010
   0.35000000  0.05000000 -0.00000000       0.010
   0.40000000  0.05000000  0.00000000       0.010
   0.45000000  0.05000000  0.00000000       0.010
   0.00000000  0.10000000  0.00000000       0.010
   0.05000000  0.10000000  0.00000000       0.010
   0.10000000  0.10000000 -0.00000000       0.010
   0.15000000  0.10000000  0.00000000       0.010
   0.20000000  0.10000000  0.00000000       0.010
   0.25000000  0.10000000  0.00000000       0.010
   0.30000000  0.10000000 -0.00000000       0.010
   0.35000000  0.10000000 -0.00000000       0.010
   0.40000000  0.10000000  0.00000000       0.010
   0.45000000  0.10000000  0.00000000       0.005
  -0.05000000  0.10000000  0.00000000       0.005
   0.00000000  0.15000000 -0.00000000       0.010
   0.05000000  0.15000000 -0.00000000       0.010
   0.10000000  0.15000000 -0.00000000       0.010
   0.15000000  0.15000000  0.00000000       0.010
   0.20000000  0.15000000 -0.00000000       0.010
   0.25000000  0.15000000 -0.00000000       0.010
   0.30000000  0.15000000  0.00000000       0.010
   0.35000000  0.15000000 -0.00000000       0.010
   0.40000000  0.15000000  0.00000000       0.010
  -0.10000000  0.15000000 -0.00000000       0.010
   0.00000000  0.20000000 -0.00000000       0.010
   0.05000000  0.20000000  0.00000000       0.010
   0.10000000  0.20000000 -0.00000000       0.010
   0.15000000  0.20000000 -0.00000000       0.010
   0.20000000  0.20000000 -0.00000000       0.010
   0.25000000  0.20000000  0.00000000       0.010
   0.30000000  0.20000000  0.00000000       0.010
   0.35000000  0.20000000 -0.00000000       0.010
   0.40000000  0.20000000  0.00000000       0.005
  -0.15000000  0.20000000  0.00000000       0.010
  -0.10000000  0.20000000 -0.00000000       0.005
   0.00000000  0.25000000 -0.00000000       0.010
   0.05000000  0.25000000 -0.00000000       0.010
   0.10000000  0.25000000 -0.00000000       0.010
   0.15000000  0.25000000 -0.00000000       0.010
   0.20000000  0.25000000 -0.00000000       0.010
   0.25000000  0.25000000 -0.00000000       0.010
   0.30000000  0.25000000 -0.00000000       0.010
[...]
   0.05000000  0.45000000 -0.00000000       0.010
   0.10000000  0.45000000  0.00000000       0.010
   0.15000000  0.45000000 -0.00000000       0.010
   0.20000000  0.45000000 -0.00000000       0.010
   0.25000000  0.45000000 -0.00000000       0.010
  -0.40000000  0.45000000 -0.00000000       0.010
  -0.35000000  0.45000000  0.00000000       0.010
  -0.30000000  0.45000000 -0.00000000       0.010
  -0.25000000  0.45000000 -0.00000000       0.010
   0.00000000  0.50000000 -0.00000000       0.005
   0.05000000  0.50000000 -0.00000000       0.010
   0.10000000  0.50000000 -0.00000000       0.010
   0.15000000  0.50000000 -0.00000000       0.010
   0.20000000  0.50000000  0.00000000       0.010
   0.25000000  0.50000000  0.00000000       0.005

 position of ions in fractional coordinates (direct lattice)
   0.66666932  0.33332178  0.16781410
   0.33331886  0.66664608  0.09067811
   0.33331881  0.66664612  0.24495119

 position of ions in cartesian coordinates  (Angst):
   1.59155727  0.91884023  3.40158652
  -0.00001306  1.83768475  1.83804237
  -0.00001286  1.83768654  4.96515275

 k-point  1 :   0.0000 0.0000 0.0000  plane waves:    4495
 k-point  2 :   0.0500-0.0000-0.0000  plane waves:    4482
 k-point  3 :   0.1000-0.0000-0.0000  plane waves:    4496
 k-point  4 :   0.1500 0.0000-0.0000  plane waves:    4496
 k-point  5 :   0.2000 0.0000 0.0000  plane waves:    4518
 k-point  6 :   0.2500 0.0000-0.0000  plane waves:    4516
 k-point  7 :   0.3000 0.0000 0.0000  plane waves:    4524
 k-point  8 :   0.3500 0.0000-0.0000  plane waves:    4520
 k-point  9 :   0.4000 0.0000 0.0000  plane waves:    4534
 k-point 10 :   0.4500 0.0000 0.0000  plane waves:    4532
 k-point 11 :   0.5000 0.0000-0.0000  plane waves:    4532
 k-point 12 :   0.0000 0.0500 0.0000  plane waves:    4482
 k-point 13 :   0.0500 0.0500-0.0000  plane waves:    4507
 k-point 14 :   0.1000 0.0500-0.0000  plane waves:    4496
 k-point 15 :   0.1500 0.0500-0.0000  plane waves:    4499
 k-point 16 :   0.2000 0.0500 0.0000  plane waves:    4512
 k-point 17 :   0.2500 0.0500-0.0000  plane waves:    4515
 k-point 18 :   0.3000 0.0500 0.0000  plane waves:    4527
 k-point 19 :   0.3500 0.0500-0.0000  plane waves:    4541
 k-point 20 :   0.4000 0.0500 0.0000  plane waves:    4534
 k-point 21 :   0.4500 0.0500 0.0000  plane waves:    4526
 k-point 22 :   0.0000 0.1000 0.0000  plane waves:    4496
 k-point 23 :   0.0500 0.1000 0.0000  plane waves:    4496
 k-point 24 :   0.1000 0.1000-0.0000  plane waves:    4490
 k-point 25 :   0.1500 0.1000 0.0000  plane waves:    4503
 k-point 26 :   0.2000 0.1000 0.0000  plane waves:    4497
 k-point 27 :   0.2500 0.1000 0.0000  plane waves:    4518
 k-point 28 :   0.3000 0.1000-0.0000  plane waves:    4525
 k-point 29 :   0.3500 0.1000-0.0000  plane waves:    4533
 k-point 30 :   0.4000 0.1000 0.0000  plane waves:    4529
 k-point 31 :   0.4500 0.1000 0.0000  plane waves:    4538
 k-point 32 :  -0.0500 0.1000 0.0000  plane waves:    4507
 k-point 33 :   0.0000 0.1500-0.0000  plane waves:    4496
 k-point 34 :   0.0500 0.1500-0.0000  plane waves:    4499
 k-point 35 :   0.1000 0.1500-0.0000  plane waves:    4503
 k-point 36 :   0.1500 0.1500 0.0000  plane waves:    4502
 k-point 37 :   0.2000 0.1500-0.0000  plane waves:    4505
 k-point 38 :   0.2500 0.1500-0.0000  plane waves:    4514
 k-point 39 :   0.3000 0.1500 0.0000  plane waves:    4525
 k-point 40 :   0.3500 0.1500-0.0000  plane waves:    4531
 k-point 41 :   0.4000 0.1500 0.0000  plane waves:    4513
 k-point 42 :  -0.1000 0.1500-0.0000  plane waves:    4496
 k-point 43 :   0.0000 0.2000-0.0000  plane waves:    4518
 k-point 44 :   0.0500 0.2000 0.0000  plane waves:    4512
 k-point 45 :   0.1000 0.2000-0.0000  plane waves:    4497
 k-point 46 :   0.1500 0.2000-0.0000  plane waves:    4505
 k-point 47 :   0.2000 0.2000-0.0000  plane waves:    4506
 k-point 48 :   0.2500 0.2000 0.0000  plane waves:    4519
 k-point 49 :   0.3000 0.2000 0.0000  plane waves:    4525
 k-point 50 :   0.3500 0.2000-0.0000  plane waves:    4508
 k-point 51 :   0.4000 0.2000 0.0000  plane waves:    4494
 k-point 52 :  -0.1500 0.2000 0.0000  plane waves:    4499
 k-point 53 :  -0.1000 0.2000-0.0000  plane waves:    4490
 k-point 54 :   0.0000 0.2500-0.0000  plane waves:    4516
 k-point 55 :   0.0500 0.2500-0.0000  plane waves:    4515
 k-point 56 :   0.1000 0.2500-0.0000  plane waves:    4518
 k-point 57 :   0.1500 0.2500-0.0000  plane waves:    4514
 k-point 58 :   0.2000 0.2500-0.0000  plane waves:    4519
 k-point 59 :   0.2500 0.2500-0.0000  plane waves:    4530
 k-point 60 :   0.3000 0.2500-0.0000  plane waves:    4503
[...]
 k-point 85 :   0.0000 0.4000-0.0000  plane waves:    4534
 k-point 86 :   0.0500 0.4000-0.0000  plane waves:    4534
 k-point 87 :   0.1000 0.4000 0.0000  plane waves:    4529
 k-point 88 :   0.1500 0.4000-0.0000  plane waves:    4513
 k-point 89 :   0.2000 0.4000-0.0000  plane waves:    4494
 k-point 90 :   0.2500 0.4000-0.0000  plane waves:    4507
 k-point 91 :   0.3000 0.4000-0.0000  plane waves:    4512
 k-point 92 :  -0.3500 0.4000 0.0000  plane waves:    4541
 k-point 93 :  -0.3000 0.4000-0.0000  plane waves:    4525
 k-point 94 :  -0.2500 0.4000 0.0000  plane waves:    4514
 k-point 95 :  -0.2000 0.4000 0.0000  plane waves:    4506
 k-point 96 :   0.0000 0.4500-0.0000  plane waves:    4532
 k-point 97 :   0.0500 0.4500-0.0000  plane waves:    4526
 k-point 98 :   0.1000 0.4500 0.0000  plane waves:    4538
 k-point 99 :   0.1500 0.4500-0.0000  plane waves:    4513
 k-point ** :   0.2000 0.4500-0.0000  plane waves:    4508
 k-point ** :   0.2500 0.4500-0.0000  plane waves:    4503
 k-point ** :  -0.4000 0.4500-0.0000  plane waves:    4534
 k-point ** :  -0.3500 0.4500 0.0000  plane waves:    4533
 k-point ** :  -0.3000 0.4500-0.0000  plane waves:    4525
 k-point ** :  -0.2500 0.4500-0.0000  plane waves:    4519
 k-point ** :   0.0000 0.5000-0.0000  plane waves:    4532
 k-point ** :   0.0500 0.5000-0.0000  plane waves:    4526
 k-point ** :   0.1000 0.5000-0.0000  plane waves:    4529
 k-point ** :   0.1500 0.5000-0.0000  plane waves:    4531
 k-point ** :   0.2000 0.5000 0.0000  plane waves:    4525
 k-point ** :   0.2500 0.5000 0.0000  plane waves:    4530

 maximum and minimum number of plane-waves per node :       664      611

 maximum number of plane-waves:      4541
 maximum index in each direction:
   IXMAX=    6   IYMAX=    5   IZMAX=   36
   IXMIN=   -6   IYMIN=   -6   IZMIN=  -36

 parallel 3D FFT for wavefunctions:
    minimum data exchange during FFTs selected (reduces bandwidth)
 parallel 3D FFT for charge:
    minimum data exchange during FFTs selected (reduces bandwidth)

 initial charge density was supplied:
 number of electron      18.0000013 magnetization
 keeping initial charge density in first step

 Maximum index for augmentation-charges          826 (set IRDMAX)

 First call to EWALD:  gamma=   0.315
 Maximum number of real-space cells 5x 5x 1
 Maximum number of reciprocal cells 2x 2x 9

--------------------------------------- Iteration      1(   1)  ---------------------------------------

 BZINTS: Fermi energy:  7.314174; 18.000000 electrons
         Band energy:   1.358568;  BLOECHL correction: -0.078871

 eigenvalue-minimisations  :  3552
 total energy-change (2. order) : 0.1164344E+03  (-0.6161823E+03)
 number of electron      18.0000013 magnetization
 augmentation part       18.0000013 magnetization

 Free energy of the ion-electron system (eV)
  alpha Z        PSCENC =        16.67021146
  Ewald energy   TEWEN  =      2536.01924891
  -Hartree energ DENC   =     -3249.40427490
  -exchange      EXHF   =         0.00000000
  -V(xc)+E(xc)   XCENC  =       -35.15763025
  PAW double counting   =      1604.01216635    -1528.22186513
  entropy T*S    EENTRO =         0.00000000
  eigenvalues    EBANDS =         1.35856832
  atomic energy  EATOM  =       771.15796241
  Solvation  Ediel_sol  =         0.00000000
  free energy    TOTEN  =       116.43438717 eV

  energy without entropy =      116.43438717  energy(sigma->0) =      116.43438717

[...]

 BZINTS: Fermi energy: -1.803614; 18.000000 electrons
         Band energy:-125.068477;  BLOECHL correction:  0.000000

 eigenvalue-minimisations  :  5344
 total energy-change (2. order) :-0.1264270E+03  (-0.1158398E+03)
 number of electron      18.0000013 magnetization
 augmentation part       18.0000013 magnetization

[...]

--------------------------------------- Iteration      1(   8)  ---------------------------------------

[...]

 eigenvalue-minimisations  :  4624
 total energy-change (2. order) :-0.4071662E-06  (-0.4071370E-06)
 number of electron      18.0000013 magnetization
 augmentation part       18.0000013 magnetization

 Free energy of the ion-electron system (eV)
  alpha Z        PSCENC =        16.67021146
  Ewald energy   TEWEN  =      2536.01924891
  -Hartree energ DENC   =     -3249.40427490
  -exchange      EXHF   =         0.00000000
  -V(xc)+E(xc)   XCENC  =       -35.15763025
  PAW double counting   =      1604.01216635    -1528.22186513
  entropy T*S    EENTRO =         0.00000000
  eigenvalues    EBANDS =      -136.87334538
  atomic energy  EATOM  =       771.15796241
  Solvation  Ediel_sol  =         0.00000000
  free energy    TOTEN  =       -21.79752653 eV

  energy without entropy =      -21.79752653  energy(sigma->0) =      -21.79752653

 average (electrostatic) potential at core
  the test charge radii are     1.2296  0.9698
  (the norm of the test charge is              1.0000)
       1 -46.0267       2 -93.8825       3 -93.8831

 E-fermi :  -2.6172     XC(G=0):  -3.7487     alpha+bet : -3.5530

 k-point     1 :       0.0000    0.0000    0.0000
  band No.  band energies     occupation
      1     -16.6602      2.00000
      2     -15.4440      2.00000
      3      -8.1804      2.00000
      4      -5.1981      2.00000
      5      -5.1980      2.00000
      6      -4.3431      2.00000
      7      -4.0791      2.00000
      8      -4.0787      2.00000
      9      -2.6248      2.00000
     10       0.1876      0.00000
     11       0.1881      0.00000
     12       0.4116      0.00000
     13       0.4118      0.00000
     14       2.8021      0.00000
     15       3.0282      0.00000
     16       3.6362      0.00000

[...]

 k-point   111 :       0.2500    0.5000    0.0000
  band No.  band energies     occupation
      1     -14.8834      2.00000
      2     -14.5941      2.00000
      3      -7.6900      2.00000
      4      -7.4842      2.00000
      5      -6.1922      2.00000
      6      -5.8194      2.00000
      7      -5.4990      2.00000
      8      -4.2310      2.00000
      9      -3.1072      2.00000
     10      -0.4441      0.00000
     11       0.1804      0.00000
     12       0.4845      0.00000
     13       1.9835      0.00000
     14       4.9527      0.00000
     15       5.8313      0.00000
     16       6.0919      0.00000

 soft charge-density along one line, spin component           1
         0         1         2         3         4         5         6         7         8         9
 total charge-density along one line

------------------------ aborting loop because EDIFF is reached ----------------------------------------

 total charge

# of ion       s       p       d       tot
    1        0.416   0.598   4.389   5.403
    2        1.364   2.332   0.000   3.696
    3        1.364   2.332   0.000   3.696
tot          3.144   5.262   4.389  12.794

  FORCE on cell =-STRESS in cart. coord.  units (eV):
  Direction    XX          YY          ZZ          XY          YZ          ZX
  Alpha Z    16.67021    16.67021    16.67021
  Ewald    3104.00592  3103.99999 -3671.98698     0.00480    -0.00007    -0.00001
  Hartree  3211.40839  3211.40728 -3173.42818     0.00098     0.00001     0.00000
  E(xc)     -70.36938   -70.36930   -70.98241    -0.00006    -0.00000    -0.00000
  Local   -6600.31614 -6600.30985  6554.52762    -0.00546    -0.00006    -0.00002
  n-local   127.05416   126.18960   131.87013    -0.24906     0.00005    -0.00006
  augment   -25.57034   -25.57024   -26.67428     0.00006    -0.00000    -0.00000
  Kinetic   240.82348   234.25752   239.97508    -1.89609     0.00001    -0.00000
  Fock        0.00000     0.00000     0.00000     0.00000     0.00000     0.00000
  Total      -0.00909    -0.00941    -0.02880     0.00028    -0.00000    -0.00000
  in kB      -0.08186    -0.08475    -0.25948     0.00250    -0.00000    -0.00000

 VOLUME and BASIS-vectors are now :
  energy-cutoff  :      500.00
  volume of cell :      177.86
      direct lattice vectors                 reciprocal lattice vectors
     3.183059931  0.000000000  0.000000000     0.314163108  0.181382155 -0.000000139
    -1.591529965  2.756610762  0.000000000     0.000000000  0.362764310 -0.000000195
     0.000002699  0.000010908 20.269968033     0.000000000  0.000000000  0.049334069

  length of vectors
     3.183059931  3.183059931 20.269968033     0.362764310  0.362764310  0.049334069

 FORCES acting on ions
    electron-ion (+dipol)            ewald-force                    non-local-force                 convergence-correction
   0.213E-02 0.122E-02 -.272E-04   -.235E-02 -.145E-02 -.480E-03   -.617E-03 -.356E-03 0.000E+00   0.130E-03 -.306E-04 0.882E-03
   -.150E-02 0.438E-04 0.540E+03   0.118E-02 0.747E-03 -.544E+03   0.356E-03 0.208E-03 0.471E+01   -.880E-04 0.640E-05 0.854E-02
   -.139E-02 0.676E-05 -.540E+03   0.117E-02 0.702E-03 0.544E+03   0.355E-03 0.203E-03 -.471E+01   -.103E-03 0.137E-04 -.679E-02
   -.761E-03 0.127E-02 -.174E-01   -.355E-14 0.694E-15 -.114E-12   0.942E-04 0.544E-04 0.000E+00   -.606E-04 -.105E-04 0.263E-02

 POSITION                                       TOTAL-FORCE (eV/Angst)
      1.59156      0.91884      3.40159        -0.000807     -0.000466      0.000000
     -0.00001      1.83768      1.83804         0.000403      0.000233      0.000292
     -0.00001      1.83769      4.96515         0.000403      0.000233     -0.000292
    total drift:                               -0.000727      0.001311     -0.014789

  FREE ENERGIE OF THE ION-ELECTRON SYSTEM (eV)
  free  energy   TOTEN  =       -21.79752653 eV

  energy  without entropy=      -21.79752653  energy(sigma->0) =      -21.79752653

 total charge

# of ion       s       p       d       tot
    1        0.416   0.598   4.389   5.403
    2        1.364   2.332   0.000   3.696
    3        1.364   2.332   0.000   3.696
tot          3.144   5.262   4.389  12.794

 BZINTS: Fermi energy: -2.617191; 18.000000 electrons
         Band energy:-136.873345;  BLOECHL correction:  0.000000