 vasp.5.4.4.18Apr17-6-g9f103f2a35 (build May 24 2018 15:12:59) complex

 executed on             LinuxIFC date 2018.11.27  15:19:08

 INCAR:
 POTCAR:    PAW_PBE Mo 08Apr2002
 POTCAR:    PAW_PBE S 06Sep2000
 POTCAR:    PAW_PBE Mo 08Apr2002
   VRHFIN =Mo: 4p5s4d

   TITEL  = PAW_PBE Mo 08Apr2002
   POMASS =   95.940; ZVAL   =    6.000    mass and valenz
   ENMAX  =  224.584; ENMIN  =  168.438 eV

 POTCAR:    PAW_PBE S 06Sep2000
   VRHFIN =S : s2p4

   TITEL  = PAW_PBE S 06Sep2000
   POMASS =   32.066; ZVAL   =    6.000    mass and valenz
   ENMAX  =  258.689; ENMIN  =  194.016 eV

  PAW_PBE Mo 08Apr2002                  :
  PAW_PBE S 06Sep2000                   :

 POSCAR: Mo1S2
  positions in direct lattice
  velocities in cartesian coordinates
 exchange correlation table for  LEXCH =        8
   RHO(1)=    0.500       N(1)  =     2000
   RHO(2)=  100.500       N(2)  =     4000

 ion  position               nearest neighbor table
   1  0.667  0.333  0.168-   2 2.41   3 2.41   2 2.41   2 2.41   3 2.41   3 2.41
   2  0.333  0.667  0.091-   1 2.41   1 2.41   1 2.41
   3  0.333  0.667  0.245-   1 2.41   1 2.41   1 2.41

  LATTYP: Found a hexagonal cell.
 ALAT       =     3.1830599308
 C/A-ratio  =     6.3680761512

  Lattice vectors:

 A1 = (   3.1830599308,   0.0000000000,   0.0000000000)
 A2 = (  -1.5915299654,   2.7566107618,   0.0000000000)
 A3 = (   0.0000026991,   0.0000109083,  20.2699680328)

Analysis of symmetry for initial positions (statically):
 Subroutine PRICEL returns:
 Original cell was already a primitive cell.

 Routine SETGRP: Setting up the symmetry group for a
 hexagonal supercell.

 Subroutine GETGRP returns: Found  4 space group operations
 (whereof  1 operations were pure point group operations)
 out of a pool of 24 trial point group operations.

The static configuration has the point symmetry C_1 .
 The point group associated with its full space group is C_2v.

Analysis of symmetry for dynamics (positions and initial velocities):
 Subroutine PRICEL returns:
 Original cell was already a primitive cell.

 Routine SETGRP: Setting up the symmetry group for a
 hexagonal supercell.

 Subroutine GETGRP returns: Found  4 space group operations
 (whereof  1 operations were pure point group operations)
 out of a pool of 24 trial point group operations.

The dynamic configuration has the point symmetry C_1 .
 The point group associated with its full space group is C_2v.

 Subroutine INISYM returns: Found  4 space group operations
 (whereof  1 operations are pure point group operations),
 and found     1 'primitive' translations

 KPOINTS: K-Points

Automatic generation of k-mesh.
Space group operators:
 irot       det(A)        alpha          n_x          n_y          n_z        tau_x        tau_y        tau_z
    1     1.000000     0.000000     1.000000     0.000000     0.000000     0.000000     0.000000     0.000000
    2    -1.000000   180.000000     0.000000     0.000000     1.000000     0.000000     0.000000     0.335628
    3    -1.000000   180.000000    -0.500000     0.866025    -0.000000     0.000000     0.999974     0.000000
    4     1.000000   180.000000    -0.866025    -0.500000     0.000000    -0.000000     0.999974     0.335628

 Subroutine IBZKPT returns following result:

 Found     57 irreducible k-points:

 Following reciprocal coordinates:
            Coordinates               Weight
  0.000000  0.000000  0.000000      1.000000
  0.071429 -0.000000 -0.000000      2.000000
  0.142857  0.000000 -0.000000      2.000000
  0.214286  0.000000  0.000000      2.000000
  0.285714  0.000000 -0.000000      2.000000
  0.357143  0.000000 -0.000000      2.000000
  0.428571  0.000000  0.000000      2.000000
  0.500000  0.000000 -0.000000      1.000000
  0.000000  0.071429 -0.000000      4.000000
  0.071429  0.071429 -0.000000      4.000000
  0.142857  0.071429  0.000000      4.000000
  0.214286  0.071429 -0.000000      4.000000
  0.285714  0.071429 -0.000000      4.000000
  0.357143  0.071429 -0.000000      4.000000
  0.428571  0.071429  0.000000      4.000000
  0.000000  0.142857 -0.000000      4.000000
  0.071429  0.142857 -0.000000      4.000000
  0.142857  0.142857  0.000000      4.000000
  0.214286  0.142857 -0.000000      4.000000
  0.285714  0.142857 -0.000000      4.000000
  0.357143  0.142857 -0.000000      4.000000
  0.428571  0.142857  0.000000      2.000000
 -0.071429  0.142857 -0.000000      2.000000
  0.000000  0.214286  0.000000      4.000000
  0.071429  0.214286  0.000000      4.000000
  0.142857  0.214286 -0.000000      4.000000
  0.214286  0.214286 -0.000000      4.000000
  0.285714  0.214286 -0.000000      4.000000
  0.357143  0.214286 -0.000000      4.000000
 -0.142857  0.214286  0.000000      4.000000
  0.000000  0.285714  0.000000      4.000000
  0.071429  0.285714 -0.000000      4.000000
  0.142857  0.285714 -0.000000      4.000000
  0.214286  0.285714  0.000000      4.000000
  0.285714  0.285714  0.000000      4.000000
  0.357143  0.285714  0.000000      2.000000
 -0.214286  0.285714  0.000000      4.000000
 -0.142857  0.285714  0.000000      2.000000
  0.000000  0.357143  0.000000      4.000000
  0.071429  0.357143 -0.000000      4.000000
  0.142857  0.357143 -0.000000      4.000000
  0.214286  0.357143  0.000000      4.000000
  0.285714  0.357143 -0.000000      4.000000
 -0.285714  0.357143  0.000000      4.000000
 -0.214286  0.357143 -0.000000      4.000000
  0.000000  0.428571  0.000000      4.000000
  0.071429  0.428571  0.000000      4.000000
  0.142857  0.428571  0.000000      4.000000
  0.214286  0.428571  0.000000      4.000000
  0.285714  0.428571 -0.000000      2.000000
 -0.357143  0.428571  0.000000      4.000000
 -0.285714  0.428571  0.000000      4.000000
 -0.214286  0.428571 -0.000000      2.000000
  0.000000  0.500000 -0.000000      2.000000
  0.071429  0.500000 -0.000000      4.000000
  0.142857  0.500000 -0.000000      4.000000
  0.214286  0.500000 -0.000000      4.000000

 Following cartesian coordinates:
            Coordinates               Weight
  0.000000  0.000000  0.000000      1.000000
  0.022440  0.012956 -0.000000      2.000000
  0.044880  0.025912 -0.000000      2.000000
  0.067321  0.038868 -0.000000      2.000000
  0.089761  0.051823 -0.000000      2.000000
  0.112201  0.064779 -0.000000      2.000000
  0.134641  0.077735 -0.000000      2.000000
  0.157082  0.090691 -0.000000      1.000000
  0.000000  0.025912 -0.000000      4.000000
  0.022440  0.038868 -0.000000      4.000000
  0.044880  0.051823 -0.000000      4.000000
  0.067321  0.064779 -0.000000      4.000000
  0.089761  0.077735 -0.000000      4.000000
  0.112201  0.090691 -0.000000      4.000000
  0.134641  0.103647 -0.000000      4.000000
  0.000000  0.051823 -0.000000      4.000000
  0.022440  0.064779 -0.000000      4.000000
  0.044880  0.077735 -0.000000      4.000000
  0.067321  0.090691 -0.000000      4.000000
  0.089761  0.103647 -0.000000      4.000000
  0.112201  0.116603 -0.000000      4.000000
  0.134641  0.129559 -0.000000      2.000000
 -0.022440  0.038868 -0.000000      2.000000
  0.000000  0.077735 -0.000000      4.000000
  0.022440  0.090691 -0.000000      4.000000
  0.044880  0.103647 -0.000000      4.000000
  0.067321  0.116603 -0.000000      4.000000
  0.089761  0.129559 -0.000000      4.000000
  0.112201  0.142515 -0.000000      4.000000
 -0.044880  0.051823 -0.000000      4.000000
  0.000000  0.103647 -0.000000      4.000000
  0.022440  0.116603 -0.000000      4.000000
  0.044880  0.129559 -0.000000      4.000000
  0.067321  0.142515 -0.000000      4.000000
  0.089761  0.155470 -0.000000      4.000000
  0.112201  0.168426 -0.000000      2.000000
 -0.067321  0.064779 -0.000000      4.000000
 -0.044880  0.077735 -0.000000      2.000000
  0.000000  0.129559 -0.000000      4.000000
  0.022440  0.142515 -0.000000      4.000000
  0.044880  0.155470 -0.000000      4.000000
  0.067321  0.168426 -0.000000      4.000000
  0.089761  0.181382 -0.000000      4.000000
 -0.089761  0.077735 -0.000000      4.000000
 -0.067321  0.090691 -0.000000      4.000000
  0.000000  0.155470 -0.000000      4.000000
  0.022440  0.168426 -0.000000      4.000000
  0.044880  0.181382 -0.000000      4.000000
  0.067321  0.194338 -0.000000      4.000000
  0.089761  0.207294 -0.000000      2.000000
 -0.112201  0.090691 -0.000000      4.000000
 -0.089761  0.103647 -0.000000      4.000000
 -0.067321  0.116603 -0.000000      2.000000
  0.000000  0.181382 -0.000000      2.000000
  0.022440  0.194338 -0.000000      4.000000
  0.044880  0.207294 -0.000000      4.000000
  0.067321  0.220250 -0.000000      4.000000

 TETIRR: Found    301 inequivalent tetrahedra from     1176

 SYSTEM =  MoS2
 POSCAR =  Mo1S2

 Startparameter for this run:
   NWRITE =      2    write-flag & timer
   PREC   = normal    normal or accurate (medium, high low for compatibility)
   ISTART =      0    job   : 0-new  1-cont  2-samecut
   ICHARG =      2    charge: 1-file 2-atom 10-const
   ISPIN  =      1    spin polarized calculation?
   LNONCOLLINEAR =      F non collinear calculations
   LSORBIT =      F    spin-orbit coupling
   INIWAV =      1    electr: 0-lowe 1-rand  2-diag
   LASPH  =      F    aspherical Exc in radial PAW
   METAGGA=      F    non-selfconsistent MetaGGA calc.

 Electronic Relaxation 1
   ENCUT  =  500.0 eV  36.75 Ry    6.06 a.u.   5.80  5.80 36.96*2*pi/ulx,y,z
   ENINI  =  500.0     initial cutoff
   ENAUG  =  345.3 eV  augmentation charge cutoff
   NELM   =    300;   NELMIN=  2; NELMDL= -5     # of ELM steps
   EDIFF  = 0.1E-05   stopping-criterion for ELM
   LREAL  =      F    real-space projection
   NLSPLINE    = F    spline interpolate recip. space projectors
   LCOMPAT=      F    compatible to vasp.4.4
   GGA_COMPAT  = T    GGA compatible to vasp.4.4-vasp.4.6
   LMAXPAW     = -100 max onsite density
   LMAXMIX     =    2 max onsite mixed and CHGCAR
   VOSKOWN=      0    Vosko Wilk Nusair interpolation
   ROPT   =    0.00000   0.00000
 Ionic relaxation
   EDIFFG = 0.1E-04   stopping-criterion for IOM
   NSW    =      0    number of steps for IOM
   NBLOCK =      1;   KBLOCK =      1    inner block; outer block
   IBRION =     -1    ionic relax: 0-MD 1-quasi-New 2-CG
   NFREE  =      0    steps in history (QN), initial steepest desc. (CG)
   ISIF   =      2    stress and relaxation
   IWAVPR =     10    prediction:  0-non 1-charg 2-wave 3-comb
   ISYM   =      2    0-nonsym 1-usesym 2-fastsym
   LCORR  =      T    Harris-Foulkes like correction to forces

   POTIM  = 0.5000    time-step for ionic-motion
   TEIN   =    0.0    initial temperature
   TEBEG  =    0.0;   TEEND  =   0.0 temperature during run
   SMASS  =  -3.00    Nose mass-parameter (am)
   estimated Nose-frequenzy (Omega)   =  0.10E-29 period in steps =****** mass=  -0.232E-27a.u.
   SCALEE = 1.0000    scale energy and forces
   NPACO  =    256;   APACO  = 16.0  distance and # of slots for P.C.
   PSTRESS=    0.0 pullay stress

  Mass of Ions in am
   POMASS =  95.94 32.07
  Ionic Valenz
   ZVAL   =   6.00  6.00
  Atomic Wigner-Seitz radii
  virtual crystal weights
   VCA    =   1.00  1.00
   NELECT =      18.0000    total number of electrons
   NUPDOWN=      -1.0000    fix difference up-down

 DOS related values:
[...]
   0.08976089  0.18138215 -0.00000011       0.020
  -0.08976089  0.07773521 -0.00000003       0.020
  -0.06732067  0.09069108 -0.00000004       0.020
   0.00000000  0.15547042 -0.00000008       0.020
   0.02244022  0.16842629 -0.00000009       0.020
   0.04488044  0.18138215 -0.00000010       0.020
   0.06732067  0.19433802 -0.00000011       0.020
   0.08976089  0.20729389 -0.00000012       0.010
  -0.11220111  0.09069108 -0.00000003       0.020
  -0.08976089  0.10364695 -0.00000004       0.020
  -0.06732067  0.11660281 -0.00000005       0.010
   0.00000000  0.18138215 -0.00000010       0.010
   0.02244022  0.19433802 -0.00000011       0.020
   0.04488044  0.20729389 -0.00000012       0.020
   0.06732067  0.22024976 -0.00000013       0.020

 k-points in reciprocal lattice and weights: K-Points
   0.00000000  0.00000000  0.00000000       0.005
   0.07142857 -0.00000000 -0.00000000       0.010
   0.14285714  0.00000000 -0.00000000       0.010
   0.21428571  0.00000000  0.00000000       0.010
   0.28571429  0.00000000 -0.00000000       0.010
   0.35714286  0.00000000 -0.00000000       0.010
   0.42857143  0.00000000  0.00000000       0.010
   0.50000000  0.00000000 -0.00000000       0.005
   0.00000000  0.07142857 -0.00000000       0.020
   0.07142857  0.07142857 -0.00000000       0.020
   0.14285714  0.07142857  0.00000000       0.020
   0.21428571  0.07142857 -0.00000000       0.020
   0.28571429  0.07142857 -0.00000000       0.020
   0.35714286  0.07142857 -0.00000000       0.020
   0.42857143  0.07142857  0.00000000       0.020
   0.00000000  0.14285714 -0.00000000       0.020
   0.07142857  0.14285714 -0.00000000       0.020
   0.14285714  0.14285714  0.00000000       0.020
   0.21428571  0.14285714 -0.00000000       0.020
   0.28571429  0.14285714 -0.00000000       0.020
   0.35714286  0.14285714 -0.00000000       0.020
   0.42857143  0.14285714  0.00000000       0.010
  -0.07142857  0.14285714 -0.00000000       0.010
   0.00000000  0.21428571  0.00000000       0.020
   0.07142857  0.21428571  0.00000000       0.020
   0.14285714  0.21428571 -0.00000000       0.020
   0.21428571  0.21428571 -0.00000000       0.020
   0.28571429  0.21428571 -0.00000000       0.020
   0.35714286  0.21428571 -0.00000000       0.020
  -0.14285714  0.21428571  0.00000000       0.020
   0.00000000  0.28571429  0.00000000       0.020
   0.07142857  0.28571429 -0.00000000       0.020
   0.14285714  0.28571429 -0.00000000       0.020
   0.21428571  0.28571429  0.00000000       0.020
   0.28571429  0.28571429  0.00000000       0.020
   0.35714286  0.28571429  0.00000000       0.010
  -0.21428571  0.28571429  0.00000000       0.020
  -0.14285714  0.28571429  0.00000000       0.010
   0.00000000  0.35714286  0.00000000       0.020
   0.07142857  0.35714286 -0.00000000       0.020
   0.14285714  0.35714286 -0.00000000       0.020
   0.21428571  0.35714286  0.00000000       0.020
   0.28571429  0.35714286 -0.00000000       0.020
  -0.28571429  0.35714286  0.00000000       0.020
  -0.21428571  0.35714286 -0.00000000       0.020
   0.00000000  0.42857143  0.00000000       0.020
   0.07142857  0.42857143  0.00000000       0.020
   0.14285714  0.42857143  0.00000000       0.020
   0.21428571  0.42857143  0.00000000       0.020
   0.28571429  0.42857143 -0.00000000       0.010
  -0.35714286  0.42857143  0.00000000       0.020
  -0.28571429  0.42857143  0.00000000       0.020
  -0.21428571  0.42857143 -0.00000000       0.010
   0.00000000  0.50000000 -0.00000000       0.010
   0.07142857  0.50000000 -0.00000000       0.020
   0.14285714  0.50000000 -0.00000000       0.020
   0.21428571  0.50000000 -0.00000000       0.020

 position of ions in fractional coordinates (direct lattice)
   0.66666932  0.33332178  0.16781410
   0.33331886  0.66664608  0.09067811
   0.33331881  0.66664612  0.24495119

 position of ions in cartesian coordinates  (Angst):
   1.59155727  0.91884023  3.40158652
  -0.00001306  1.83768475  1.83804237
  -0.00001286  1.83768654  4.96515275

 k-point  1 :   0.0000 0.0000 0.0000  plane waves:    4495
 k-point  2 :   0.0714-0.0000-0.0000  plane waves:    4498
 k-point  3 :   0.1429 0.0000-0.0000  plane waves:    4492
 k-point  4 :   0.2143 0.0000 0.0000  plane waves:    4524
 k-point  5 :   0.2857 0.0000-0.0000  plane waves:    4520
 k-point  6 :   0.3571 0.0000-0.0000  plane waves:    4528
 k-point  7 :   0.4286 0.0000 0.0000  plane waves:    4542
 k-point  8 :   0.5000 0.0000-0.0000  plane waves:    4532
 k-point  9 :   0.0000 0.0714-0.0000  plane waves:    4498
 k-point 10 :   0.0714 0.0714-0.0000  plane waves:    4495
 k-point 11 :   0.1429 0.0714 0.0000  plane waves:    4490
 k-point 12 :   0.2143 0.0714-0.0000  plane waves:    4502
 k-point 13 :   0.2857 0.0714-0.0000  plane waves:    4521
 k-point 14 :   0.3571 0.0714-0.0000  plane waves:    4539
 k-point 15 :   0.4286 0.0714 0.0000  plane waves:    4520
 k-point 16 :   0.0000 0.1429-0.0000  plane waves:    4492
 k-point 17 :   0.0714 0.1429-0.0000  plane waves:    4490
 k-point 18 :   0.1429 0.1429 0.0000  plane waves:    4502
 k-point 19 :   0.2143 0.1429-0.0000  plane waves:    4508
 k-point 20 :   0.2857 0.1429-0.0000  plane waves:    4527
 k-point 21 :   0.3571 0.1429-0.0000  plane waves:    4530
 k-point 22 :   0.4286 0.1429 0.0000  plane waves:    4528
 k-point 23 :  -0.0714 0.1429-0.0000  plane waves:    4495
 k-point 24 :   0.0000 0.2143 0.0000  plane waves:    4524
 k-point 25 :   0.0714 0.2143 0.0000  plane waves:    4502
 k-point 26 :   0.1429 0.2143-0.0000  plane waves:    4508
 k-point 27 :   0.2143 0.2143-0.0000  plane waves:    4522
 k-point 28 :   0.2857 0.2143-0.0000  plane waves:    4521
 k-point 29 :   0.3571 0.2143-0.0000  plane waves:    4499
 k-point 30 :  -0.1429 0.2143 0.0000  plane waves:    4491
 k-point 31 :   0.0000 0.2857 0.0000  plane waves:    4520
 k-point 32 :   0.0714 0.2857-0.0000  plane waves:    4521
 k-point 33 :   0.1429 0.2857-0.0000  plane waves:    4527
 k-point 34 :   0.2143 0.2857 0.0000  plane waves:    4521
 k-point 35 :   0.2857 0.2857 0.0000  plane waves:    4506
 k-point 36 :   0.3571 0.2857 0.0000  plane waves:    4512
 k-point 37 :  -0.2143 0.2857 0.0000  plane waves:    4502
 k-point 38 :  -0.1429 0.2857 0.0000  plane waves:    4502
 k-point 39 :   0.0000 0.3571 0.0000  plane waves:    4528
 k-point 40 :   0.0714 0.3571-0.0000  plane waves:    4539
 k-point 41 :   0.1429 0.3571-0.0000  plane waves:    4530
 k-point 42 :   0.2143 0.3571 0.0000  plane waves:    4498
 k-point 43 :   0.2857 0.3571-0.0000  plane waves:    4512
 k-point 44 :  -0.2857 0.3571 0.0000  plane waves:    4521
 k-point 45 :  -0.2143 0.3571-0.0000  plane waves:    4508
 k-point 46 :   0.0000 0.4286 0.0000  plane waves:    4542
 k-point 47 :   0.0714 0.4286 0.0000  plane waves:    4520
 k-point 48 :   0.1429 0.4286 0.0000  plane waves:    4528
 k-point 49 :   0.2143 0.4286 0.0000  plane waves:    4498
 k-point 50 :   0.2857 0.4286-0.0000  plane waves:    4506
 k-point 51 :  -0.3571 0.4286 0.0000  plane waves:    4539
 k-point 52 :  -0.2857 0.4286 0.0000  plane waves:    4527
 k-point 53 :  -0.2143 0.4286-0.0000  plane waves:    4522
 k-point 54 :   0.0000 0.5000-0.0000  plane waves:    4532
 k-point 55 :   0.0714 0.5000-0.0000  plane waves:    4520
 k-point 56 :   0.1429 0.5000-0.0000  plane waves:    4530
 k-point 57 :   0.2143 0.5000-0.0000  plane waves:    4521

 maximum and minimum number of plane-waves per node :       668      618

 maximum number of plane-waves:      4542
 maximum index in each direction:
   IXMAX=    6   IYMAX=    5   IZMAX=   36
   IXMIN=   -6   IYMIN=   -6   IZMIN=  -36

 parallel 3D FFT for wavefunctions:
    minimum data exchange during FFTs selected (reduces bandwidth)
 parallel 3D FFT for charge:
    minimum data exchange during FFTs selected (reduces bandwidth)

 Broyden mixing: mesh for mixing (old mesh)
   NGX = 11   NGY = 11   NGZ = 73
  (NGX  = 36   NGY  = 36   NGZ  =224)
  gives a total of   8833 points

 initial charge density was supplied:
 charge density of overlapping atoms calculated
 number of electron      18.0000000 magnetization
 keeping initial charge density in first step

 Maximum index for augmentation-charges          826 (set IRDMAX)

 First call to EWALD:  gamma=   0.315
 Maximum number of real-space cells 5x 5x 1
 Maximum number of reciprocal cells 2x 2x 9

--------------------------------------- Iteration      1(   1)  ---------------------------------------

 BZINTS: Fermi energy:  7.302826; 18.000000 electrons
         Band energy:  -7.049240;  BLOECHL correction: -0.122102

 eigenvalue-minimisations  :  1824
 total energy-change (2. order) : 0.1207391E+03  (-0.6170592E+03)
 number of electron      18.0000000 magnetization
 augmentation part       18.0000000 magnetization

 Free energy of the ion-electron system (eV)
  alpha Z        PSCENC =        16.67021146
  Ewald energy   TEWEN  =      2536.01924891
  -Hartree energ DENC   =     -3237.33179682
  -exchange      EXHF   =         0.00000000
  -V(xc)+E(xc)   XCENC  =       -36.27410222
  PAW double counting   =       700.55132206     -623.00449337
  entropy T*S    EENTRO =         0.00000000
  eigenvalues    EBANDS =        -7.04924031
  atomic energy  EATOM  =       771.15796241
  Solvation  Ediel_sol  =         0.00000000
  free energy    TOTEN  =       120.73911213 eV

  energy without entropy =      120.73911213  energy(sigma->0) =      120.73911213

[...]

 BZINTS: Fermi energy: -1.800547; 18.000000 electrons
         Band energy:-138.850512;  BLOECHL correction:  0.000000

 eigenvalue-minimisations  :  2832
 total energy-change (2. order) :-0.1318013E+03  (-0.1224088E+03)
 number of electron      18.0000000 magnetization
 augmentation part       18.0000000 magnetization

[...]

 Broyden mixing:
  rms(total) = 0.24601E+01    rms(broyden)= 0.24601E+01
  rms(prec ) = 0.24888E+01
  weight for this iteration     100.00

[...]

 eigenvalues of (default mixing * dielectric matrix)
  average eigenvalue GAMMA=   1.1588
  1.1588

[...]

 eigenvalue-minimisations  :  2432
 total energy-change (2. order) : 0.2346831E-04  (-0.3821330E-04)
 number of electron      18.0000013 magnetization
 augmentation part       -0.5481913 magnetization

[...]

 Broyden mixing:
  rms(total) = 0.10201E-03    rms(broyden)= 0.10200E-03
  rms(prec ) = 0.10278E-03
  weight for this iteration     100.00

 eigenvalues of (default mixing * dielectric matrix)
  average eigenvalue GAMMA=   2.1487
  7.1470  6.2786  3.4258  2.7926  2.6852  1.5980  1.5980  1.7609  1.7609  0.6554
  1.1007  1.1007  0.9841  0.9841  0.8278  0.9142  0.9142

[...]

--------------------------------------- Iteration      1(  23)  ---------------------------------------

[...]

 eigenvalue-minimisations  :  2008
 total energy-change (2. order) :-0.3529603E-06  (-0.1892705E-08)
 number of electron      18.0000013 magnetization
 augmentation part       -0.5498169 magnetization

 Free energy of the ion-electron system (eV)
  alpha Z        PSCENC =        16.67021146
  Ewald energy   TEWEN  =      2536.01924891
  -Hartree energ DENC   =     -3249.40448605
  -exchange      EXHF   =         0.00000000
  -V(xc)+E(xc)   XCENC  =       -35.15761906
  PAW double counting   =      1604.04280569    -1528.25366592
  entropy T*S    EENTRO =         0.00000000
  eigenvalues    EBANDS =      -136.87064581
  atomic energy  EATOM  =       771.15796241
  Solvation  Ediel_sol  =         0.00000000
  free energy    TOTEN  =       -21.79618835 eV

  energy without entropy =      -21.79618835  energy(sigma->0) =      -21.79618835

 average (electrostatic) potential at core
  the test charge radii are     1.2296  0.9698
  (the norm of the test charge is              1.0000)
       1 -46.0267       2 -93.8823       3 -93.8833

 E-fermi :  -2.6099     XC(G=0):  -3.7516     alpha+bet : -3.5530

 k-point     1 :       0.0000    0.0000    0.0000
  band No.  band energies     occupation
      1     -16.6602      2.00000
      2     -15.4440      2.00000
      3      -8.1790      2.00000
      4      -5.1967      2.00000
      5      -5.1966      2.00000
      6      -4.3431      2.00000
      7      -4.0826      2.00000
      8      -4.0822      2.00000
      9      -2.6184      2.00000
     10       0.1846      0.00000
     11       0.1851      0.00000
     12       0.4116      0.00000
     13       0.4118      0.00000
     14       2.8035      0.00000
     15       3.0319      0.00000
     16       3.6213      0.00000

[...]

 k-point    57 :       0.2143    0.5000   -0.0000
  band No.  band energies     occupation
      1     -14.8815      2.00000
      2     -14.5953      2.00000
      3      -7.7296      2.00000
      4      -7.4812      2.00000
      5      -6.2614      2.00000
      6      -5.8147      2.00000
      7      -5.3629      2.00000
      8      -4.2473      2.00000
      9      -3.0998      2.00000
     10      -0.4310      0.00000
     11       0.1765      0.00000
     12       0.5278      0.00000
     13       1.9487      0.00000
     14       4.8211      0.00000
     15       5.9253      0.00000
     16       6.0946      0.00000

 soft charge-density along one line, spin component           1
         0         1         2         3         4         5         6         7         8         9
 total charge-density along one line

------------------------ aborting loop because EDIFF is reached ----------------------------------------

 total charge

# of ion       s       p       d       tot
    1        0.416   0.598   4.389   5.403
    2        1.364   2.332   0.000   3.696
    3        1.364   2.332   0.000   3.696
tot          3.144   5.261   4.389  12.794

  FORCE on cell =-STRESS in cart. coord.  units (eV):
  Direction    XX          YY          ZZ          XY          YZ          ZX
  Alpha Z    16.67021    16.67021    16.67021
  Ewald    3104.00592  3103.99999 -3671.98698     0.00480    -0.00007    -0.00001
  Hartree  3211.43366  3211.43253 -3173.46087     0.00100     0.00001     0.00000
  E(xc)     -70.37103   -70.37096   -70.97973    -0.00006    -0.00000    -0.00000
  Local   -6600.34821 -6600.34187  6554.58616    -0.00550    -0.00006    -0.00002
  n-local   127.00157   126.22424   131.86885    -0.22387     0.00009    -0.00007
  augment   -25.56876   -25.56866   -26.67588     0.00006    -0.00000    -0.00000
  Kinetic   241.06906   234.01655   239.95092    -2.03653    -0.00000    -0.00000
  Fock        0.00000     0.00000     0.00000     0.00000     0.00000     0.00000
  Total      -0.02262    -0.02291    -0.02731     0.00025    -0.00000    -0.00000
  in kB      -0.20376    -0.20633    -0.24605     0.00223    -0.00000    -0.00000

 VOLUME and BASIS-vectors are now :
  energy-cutoff  :      500.00
  volume of cell :      177.86
      direct lattice vectors                 reciprocal lattice vectors
     3.183059931  0.000000000  0.000000000     0.314163108  0.181382155 -0.000000139
    -1.591529965  2.756610762  0.000000000     0.000000000  0.362764310 -0.000000195
     0.000002699  0.000010908 20.269968033     0.000000000  0.000000000  0.049334069

  length of vectors
     3.183059931  3.183059931 20.269968033     0.362764310  0.362764310  0.049334069

 FORCES acting on ions
    electron-ion (+dipol)            ewald-force                    non-local-force                 convergence-correction
   0.220E-02 0.126E-02 -.273E-04   -.235E-02 -.145E-02 -.480E-03   -.621E-03 -.358E-03 0.000E+00   0.558E-07 0.317E-07 0.253E-05
   -.166E-02 -.464E-04 0.540E+03   0.118E-02 0.747E-03 -.544E+03   0.445E-03 0.259E-03 0.471E+01   -.226E-06 -.130E-06 0.123E-03
   -.154E-02 -.834E-04 -.540E+03   0.117E-02 0.702E-03 0.544E+03   0.444E-03 0.254E-03 -.471E+01   -.226E-06 -.130E-06 -.119E-03
   -.100E-02 0.113E-02 -.174E-01   -.355E-14 0.694E-15 -.114E-12   0.268E-03 0.155E-03 0.000E+00   -.397E-06 -.228E-06 0.670E-05

 POSITION                                       TOTAL-FORCE (eV/Angst)
      1.59156      0.91884      3.40159        -0.000819     -0.000473      0.000000
     -0.00001      1.83768      1.83804         0.000410      0.000237     -0.000771
     -0.00001      1.83769      4.96515         0.000410      0.000237      0.000771
    total drift:                               -0.000737      0.001281     -0.017412

  FREE ENERGIE OF THE ION-ELECTRON SYSTEM (eV)
  free  energy   TOTEN  =       -21.79618835 eV

  energy  without entropy=      -21.79618835  energy(sigma->0) =      -21.79618835

 writing wavefunctions

 total charge

# of ion       s       p       d       tot
    1        0.416   0.598   4.389   5.403
    2        1.364   2.332   0.000   3.696
    3        1.364   2.332   0.000   3.696
tot          3.144   5.261   4.389  12.794

 BZINTS: Fermi energy: -2.609860; 18.000000 electrons
         Band energy:-136.870646;  BLOECHL correction:  0.000000